50, 588
7, 24
49, 23
40, 32
13, 34
12, 8
38, 13
15, 24
7, 35
31, 12
24, 13
7, 21
8, 46
3, 45
35, 19
37, 6
6, 18
28, 14
40, 23
9, 38
31, 19
6, 2
5, 43
23, 2
42, 29
7, 20
8, 41
44, 35
4, 35
21, 48
46, 29
48, 14
41, 13
16, 9
4, 15
43, 48
37, 28
22, 26
29, 35
20, 43
19, 27
10, 22
14, 38
37, 43
23, 27
41, 43
3, 8
36, 19
11, 11
32, 2
44, 42
